$rem
   jobtype                    sp                       
   method                     HF                       
   basis                      6-31G*                   
   sym_ignore                 true                     
   resp_charges               true                     
   chelpg                     true                     
   esp_grid                   19734                    
$end

$molecule
0 1 
  H        2.84300000      -1.61200000       0.05000000
  C        3.06000000      -0.54400000      -0.02800000
  H        3.60300000      -0.35300000      -0.95900000
  H        3.67400000      -0.23700000       0.82400000
  N        1.78700000       0.15600000      -0.02200000
  C        1.55600000       1.51400000      -0.07900000
  H        2.38200000       2.21600000      -0.13500000
  N        0.29100000       1.84500000      -0.05900000
  C       -0.35900000       0.62400000       0.01600000
  C       -1.72300000       0.26600000       0.06600000
  N       -2.70700000       1.19400000       0.07000000
  H       -3.66100000       0.88000000       0.00400000
  H       -2.47700000       2.16200000      -0.08100000
  N       -2.05200000      -1.03300000       0.12500000
  C       -1.05800000      -1.93800000       0.14100000
  H       -1.38300000      -2.97800000       0.19100000
  N        0.25700000      -1.74100000       0.10300000
  C        0.54500000      -0.43200000       0.03900000
$end
